HUN,8,6,519
0,25,3,22,1,28,4,21,5,23,2,27
0,22,5,22,4,24,3,26,2,30,1,30
5,25,1,28,3,25,0,28,2,24,4,26
5,22,1,21,0,24,3,26,2,26,4,26
4,29,0,23,3,26,2,23,1,21,5,24
5,28,0,26,4,30,1,28,3,23,2,27
5,30,4,21,1,21,3,28,0,26,2,28
3,25,1,25,5,21,4,22,2,29,0,30
